c Created with the Wolfram Language : www.wolfram.com
c 
p edge 100 497
e 8 9
e 2 11
e 9 11
e 1 12
e 6 13
e 11 13
e 6 14
e 10 14
e 12 14
e 6 15
e 8 15
e 3 18
e 4 18
e 7 18
e 11 18
e 2 19
e 10 19
e 16 19
e 1 20
e 2 20
e 5 20
e 13 20
e 4 21
e 15 21
e 4 22
e 10 22
e 20 24
e 1 25
e 5 25
e 8 27
e 13 27
e 14 27
e 17 28
e 20 28
e 3 29
e 9 30
e 14 30
e 23 30
e 14 31
e 6 33
e 17 33
e 3 34
e 20 34
e 27 34
e 2 35
e 11 35
e 13 35
e 26 35
e 2 36
e 8 36
e 26 36
e 7 37
e 9 37
e 14 37
e 5 38
e 18 38
e 26 38
e 29 38
e 32 38
e 18 39
e 9 40
e 19 40
e 21 40
e 23 40
e 27 40
e 4 41
e 8 41
e 15 41
e 22 41
e 35 41
e 22 42
e 27 42
e 37 42
e 41 42
e 7 43
e 8 43
e 18 43
e 22 43
e 41 43
e 9 44
e 20 44
e 28 44
e 43 44
e 8 45
e 12 45
e 15 45
e 19 45
e 30 45
e 36 45
e 43 45
e 26 46
e 40 46
e 3 47
e 15 47
e 22 47
e 17 48
e 21 48
e 22 48
e 37 48
e 39 48
e 46 48
e 6 49
e 9 49
e 17 49
e 20 49
e 24 49
e 26 49
e 29 49
e 3 50
e 26 50
e 28 50
e 31 50
e 33 50
e 42 50
e 11 51
e 15 51
e 28 51
e 30 51
e 34 51
e 2 52
e 25 52
e 32 52
e 33 52
e 48 52
e 6 53
e 8 53
e 13 53
e 16 53
e 23 53
e 29 53
e 41 53
e 30 54
e 44 54
e 50 54
e 10 55
e 12 55
e 20 55
e 4 56
e 6 56
e 20 56
e 29 56
e 35 56
e 44 56
e 48 56
e 55 56
e 3 57
e 26 57
e 56 57
e 12 58
e 39 58
e 50 58
e 51 58
e 54 58
e 56 58
e 6 59
e 22 59
e 23 59
e 30 59
e 31 59
e 33 59
e 37 59
e 47 59
e 57 59
e 13 60
e 14 60
e 15 60
e 23 60
e 30 60
e 35 60
e 37 60
e 55 60
e 1 61
e 3 61
e 9 61
e 29 61
e 33 61
e 36 61
e 41 61
e 50 61
e 19 62
e 27 62
e 30 62
e 41 62
e 57 62
e 58 62
e 59 62
e 61 62
e 8 63
e 10 63
e 19 63
e 21 63
e 23 63
e 35 63
e 59 63
e 61 63
e 8 64
e 16 64
e 22 64
e 24 64
e 60 64
e 10 65
e 21 65
e 26 65
e 1 66
e 9 66
e 20 66
e 25 66
e 31 66
e 33 66
e 42 66
e 47 66
e 55 66
e 7 67
e 8 67
e 9 67
e 38 67
e 45 67
e 52 67
e 65 67
e 3 68
e 21 68
e 23 68
e 28 68
e 65 68
e 13 69
e 19 69
e 23 69
e 43 69
e 46 69
e 52 69
e 59 69
e 63 69
e 24 70
e 26 70
e 58 70
e 66 70
e 6 71
e 8 71
e 14 71
e 27 71
e 29 71
e 30 71
e 52 71
e 63 71
e 21 72
e 25 72
e 50 72
e 61 72
e 7 73
e 14 73
e 32 73
e 36 73
e 37 73
e 49 73
e 66 73
e 67 73
e 2 74
e 7 74
e 26 74
e 28 74
e 29 74
e 34 74
e 35 74
e 52 74
e 53 74
e 56 74
e 62 74
e 1 75
e 14 75
e 20 75
e 3 76
e 8 76
e 18 76
e 20 76
e 21 76
e 29 76
e 41 76
e 43 76
e 69 76
e 74 76
e 9 77
e 24 77
e 32 77
e 33 77
e 36 77
e 40 77
e 67 77
e 43 78
e 48 78
e 52 78
e 61 78
e 65 78
e 70 78
e 22 79
e 24 79
e 30 79
e 41 79
e 51 79
e 60 79
e 62 79
e 69 79
e 75 79
e 18 80
e 29 80
e 34 80
e 56 80
e 10 81
e 21 81
e 47 81
e 50 81
e 54 81
e 60 81
e 69 81
e 5 82
e 20 82
e 26 82
e 55 82
e 68 82
e 70 82
e 73 82
e 77 82
e 7 83
e 10 83
e 29 83
e 37 83
e 59 83
e 74 83
e 24 84
e 25 84
e 26 84
e 75 84
e 3 85
e 8 85
e 11 85
e 35 85
e 37 85
e 58 85
e 66 85
e 70 85
e 18 86
e 19 86
e 23 86
e 33 86
e 44 86
e 59 86
e 64 86
e 74 86
e 79 86
e 82 86
e 84 86
e 85 86
e 3 87
e 14 87
e 16 87
e 17 87
e 20 87
e 21 87
e 23 87
e 37 87
e 45 87
e 57 87
e 75 87
e 76 87
e 2 88
e 6 88
e 10 88
e 39 88
e 40 88
e 42 88
e 46 88
e 48 88
e 53 88
e 65 88
e 67 88
e 24 89
e 25 89
e 41 89
e 60 89
e 67 89
e 77 89
e 80 89
e 84 89
e 27 90
e 28 90
e 31 90
e 37 90
e 47 90
e 54 90
e 59 90
e 68 90
e 77 90
e 79 90
e 88 90
e 13 91
e 35 91
e 51 91
e 56 91
e 66 91
e 71 91
e 73 91
e 74 91
e 89 91
e 90 91
e 3 92
e 9 92
e 16 92
e 19 92
e 20 92
e 27 92
e 36 92
e 38 92
e 69 92
e 73 92
e 82 92
e 89 92
e 90 92
e 91 92
e 5 93
e 7 93
e 12 93
e 13 93
e 25 93
e 29 93
e 30 93
e 44 93
e 45 93
e 48 93
e 62 93
e 65 93
e 67 93
e 2 94
e 4 94
e 6 94
e 13 94
e 48 94
e 52 94
e 62 94
e 73 94
e 90 94
e 25 95
e 26 95
e 27 95
e 30 95
e 68 95
e 71 95
e 8 96
e 10 96
e 12 96
e 14 96
e 30 96
e 36 96
e 55 96
e 64 96
e 75 96
e 13 97
e 20 97
e 23 97
e 30 97
e 35 97
e 47 97
e 52 97
e 62 97
e 72 97
e 8 98
e 18 98
e 19 98
e 31 98
e 43 98
e 51 98
e 62 98
e 66 98
e 72 98
e 78 98
e 84 98
e 88 98
e 94 98
e 3 99
e 4 99
e 9 99
e 15 99
e 35 99
e 50 99
e 61 99
e 75 99
e 78 99
e 92 99
e 6 100
e 33 100
e 42 100
e 61 100
e 71 100
e 77 100
e 90 100
e 93 100
e 94 100
e 95 100
e 99 100
